db/data/28235693279061405021977218062575335.z3.out
unsat
-------------------
16.333758830
